decision_x1=[0,2];
decision_x2=[0,2];
decision_x3=[0,2];
decision_x4=[0,2];
decision_x5=[0,2];
decision_x6=[0,2];
decision_x7=[0,2];
decision_x8=[0,2];
decision_x9=[0,2];
decision_x10=[0,2];
random_y1=[0,2];
random_y2=[0,2];
random_y3=[0,2];
random_y4=[0,2];
random_y5=[0,2];
constraint_x3_x1=[
0,0,1.8|
0,1,1.9|
0,2,6.4|
1,0,2.1|
1,1,7.4|
1,2,0.76|
2,0,9.8|
2,1,3.3|
2,2,9.9|
];
constraint_x3_x2=[
0,0,3.3|
0,1,4|
0,2,4.6|
1,0,3.7|
1,1,3.6|
1,2,3.5|
2,0,8.5|
2,1,0.38|
2,2,0.0013|
];
constraint_x4_x1=[
0,0,1.7|
0,1,0.88|
0,2,2.6|
1,0,7.1|
1,1,0.94|
1,2,1.6|
2,0,2.2|
2,1,5|
2,2,8|
];
constraint_x4_x2=[
0,0,5.9|
0,1,9.5|
0,2,6.3|
1,0,1.1|
1,1,7.4|
1,2,2.4|
2,0,3.2|
2,1,1.9|
2,2,5.3|
];
constraint_x5_x1=[
0,0,2.8|
0,1,5.2|
0,2,3.4|
1,0,3.8|
1,1,7.7|
1,2,4.6|
2,0,9.8|
2,1,8.3|
2,2,3.5|
];
constraint_x5_x3=[
0,0,8.5|
0,1,1.2|
0,2,8.6|
1,0,3.8|
1,1,0.097|
1,2,9|
2,0,6.3|
2,1,5.4|
2,2,8.4|
];
constraint_x5_x4=[
0,0,0.32|
0,1,1.1|
0,2,7|
1,0,4.8|
1,1,9.4|
1,2,5|
2,0,6.8|
2,1,4.5|
2,2,3.6|
];
constraint_x6_x1=[
0,0,0.65|
0,1,5.2|
0,2,2.1|
1,0,1.2|
1,1,7.5|
1,2,10|
2,0,2.6|
2,1,5.2|
2,2,7.3|
];
constraint_x6_x2=[
0,0,2.3|
0,1,8.4|
0,2,7.3|
1,0,2.1|
1,1,4.1|
1,2,9.8|
2,0,1.7|
2,1,5|
2,2,0.88|
];
constraint_x6_x3=[
0,0,4.5|
0,1,0.84|
0,2,9.2|
1,0,8.8|
1,1,5.2|
1,2,9.8|
2,0,6.7|
2,1,1.6|
2,2,9.7|
];
constraint_x6_x4=[
0,0,5.8|
0,1,9.8|
0,2,4.4|
1,0,9|
1,1,4.1|
1,2,7.7|
2,0,3.9|
2,1,9.2|
2,2,2|
];
constraint_x6_x5=[
0,0,1.3|
0,1,3.4|
0,2,6.3|
1,0,6.4|
1,1,9.6|
1,2,5.7|
2,0,9.4|
2,1,6.5|
2,2,0.94|
];
constraint_x7_x4=[
0,0,1.8|
0,1,9.1|
0,2,4.7|
1,0,7.4|
1,1,5|
1,2,5.7|
2,0,4.6|
2,1,4.6|
2,2,3.3|
];
constraint_x8_x2=[
0,0,8.9|
0,1,5.3|
0,2,7|
1,0,3.8|
1,1,6.5|
1,2,0.89|
2,0,9.1|
2,1,4.7|
2,2,3|
];
constraint_x8_x3=[
0,0,8.3|
0,1,3.6|
0,2,2|
1,0,0.78|
1,1,2.8|
1,2,0.75|
2,0,8.4|
2,1,4.3|
2,2,0.16|
];
constraint_x8_x4=[
0,0,8.2|
0,1,1.5|
0,2,7|
1,0,7.8|
1,1,1.7|
1,2,2.8|
2,0,4.6|
2,1,7.3|
2,2,5.9|
];
constraint_x8_x5=[
0,0,9.1|
0,1,9.5|
0,2,9.9|
1,0,5|
1,1,4.1|
1,2,7.1|
2,0,2.7|
2,1,0.24|
2,2,5.9|
];
constraint_x9_x2=[
0,0,3.6|
0,1,1.7|
0,2,3.4|
1,0,4.7|
1,1,0.053|
1,2,1.2|
2,0,7.5|
2,1,5.6|
2,2,0.35|
];
constraint_x10_x5=[
0,0,8.5|
0,1,5.5|
0,2,8.5|
1,0,9.6|
1,1,3.6|
1,2,7.4|
2,0,7.5|
2,1,1.9|
2,2,8.1|
];
constraint_x10_x6=[
0,0,2.7|
0,1,2.1|
0,2,8|
1,0,7.8|
1,1,6.4|
1,2,3.2|
2,0,9.9|
2,1,3|
2,2,9.8|
];
constraint_x10_x7=[
0,0,9.2|
0,1,1.9|
0,2,3.7|
1,0,1.5|
1,1,7.3|
1,2,3.5|
2,0,1.4|
2,1,4.1|
2,2,7|
];
constraint_x10_x8=[
0,0,9.2|
0,1,1.1|
0,2,6.4|
1,0,0.86|
1,1,5.6|
1,2,5|
2,0,9.5|
2,1,3.9|
2,2,9.6|
];
constraint_x10_x9=[
0,0,1.8|
0,1,4.3|
0,2,9.4|
1,0,7.4|
1,1,6.2|
1,2,6.6|
2,0,7.4|
2,1,4.7|
2,2,0.7|
];
constraint_x1_y1=[
0,0,6.6|
0,1,4.2|
0,2,6.6|
1,0,0.99|
1,1,3.9|
1,2,6.9|
2,0,7.6|
2,1,4.7|
2,2,1.3|
];
constraint_x2_y2=[
0,0,2.5|
0,1,7.2|
0,2,1.7|
1,0,9.3|
1,1,4.3|
1,2,4.4|
2,0,8.9|
2,1,6.6|
2,2,4.8|
];
constraint_x3_y3=[
0,0,1.7|
0,1,2|
0,2,8.3|
1,0,3.4|
1,1,9.6|
1,2,1.6|
2,0,4.4|
2,1,0.72|
2,2,5.2|
];
constraint_x4_y4=[
0,0,7.4|
0,1,4.6|
0,2,9.8|
1,0,6.1|
1,1,0.58|
1,2,0.27|
2,0,2.9|
2,1,5.5|
2,2,3.5|
];
constraint_x5_y5=[
0,0,9.3|
0,1,2.5|
0,2,5.3|
1,0,9.3|
1,1,1.9|
1,2,8.4|
2,0,0.047|
2,1,8.3|
2,2,0.11|
];
initial_distribution_y1=[0.32,0.47,0.21];
initial_distribution_y2=[0.041,0.45,0.51];
initial_distribution_y3=[0.33,0.42,0.26];
initial_distribution_y4=[0.29,0.39,0.32];
initial_distribution_y5=[0.41,0.51,0.086];
transition_y1=[
0.43,0.46,0.11|
0.53,0.33,0.14|
0.14,0.084,0.77|
];
transition_y2=[
0.35,0.5,0.15|
0.37,0.16,0.47|
0.058,0.096,0.85|
];
transition_y3=[
0.77,0.15,0.081|
0.38,0.43,0.19|
0.16,0.38,0.46|
];
transition_y4=[
0.23,0.68,0.086|
0.25,0.31,0.44|
0.35,0.32,0.33|
];
transition_y5=[
0.27,0.32,0.41|
0.31,0.017,0.68|
0.42,0.29,0.29|
];
